c turning on binary mode checking
c parsing input formula with 202048 variables and 780980 clauses
c finished parsing, read 2152917 bytes from proof file
c detected empty clause; start verification via backward checking
c 3941 of 780980 clauses in core                            
c 1354 of 85650 lemmas in core using 33990 resolution steps
c 0 RAT lemmas in core; 189 redundant literals in core lemmas
s VERIFIED
c verification time: 0.955 seconds
